Route #1: 35 46 31
Route #2: 20 41 22 15
Route #3: 1 70 54
Route #4: 86 9 92
Route #5: 66 84 90 68
Route #6: 76 55 16 69
Route #7: 4 13 74
Route #8: 58 12 5
Route #9: 18 10 39
Route #10: 25 65 78 42 28
Route #11: 57 72 36 29 43 45 2 7
Route #12: 14 49 6 37 87
Route #13: 63 77 3
Route #14: 44 67 88 40
Route #15: 82 60 59
Route #16: 17 8
Route #17: 38 47 26 48 96 64 34
Route #18: 21 56 94 80
Route #19: 89 98 99 62 71
Route #20: 100 61 23
Route #21: 19 97 27
Route #22: 83 51 81
Route #23: 50 91 52
Route #24: 79 11 85 30
Route #25: 93 75
Route #26: 32 33 53 73 95 24
